unsat
(:SPACER-inductive-gen                6
 :SPACER-inductive-gen-weaken-fail    8
 :SPACER-inductive-level              4
 :SPACER-max-depth                    6
 :SPACER-max-query-lvl                6
 :SPACER-non-local-gen                4
 :SPACER-num-active-lemmas            6
 :SPACER-num-ctp-blocked              5
 :SPACER-num-invariants               4
 :SPACER-num-is_invariant             12
 :SPACER-num-lemma-jumped             1
 :SPACER-num-lemmas                   16
 :SPACER-num-pobs                     4
 :SPACER-num-propagations             1
 :SPACER-num-queries                  8
 :SPACER-subsume-pob                  1
 :SPACER-subsume-success              2
 :added-eqs                           234
 :arith-assert-diseq                  130
 :arith-assert-lower                  640
 :arith-assert-upper                  204
 :arith-bound-prop                    76
 :arith-conflicts                     16
 :arith-eq-adapter                    70
 :arith-fixed-eqs                     36
 :arith-num-rows                      10
 :arith-offset-eqs                    6
 :arith-pivots                        60
 :arith-row-summations                94
 :arith-tableau-max-columns           32
 :arith-tableau-max-rows              10
 :conflicts                           126
 :decisions                           306
 :del-clause                          138
 :final-checks                        36
 :iuc_solver.num_proxies              17
 :max-memory                          31.03
 :memory                              30.53
 :mk-bool-var                         680
 :mk-clause                           552
 :num-allocs                          8794642
 :num-checks                          108
 :pool_solver.checks                  54
 :pool_solver.checks.sat              18
 :propagations                        2100
 :rlimit-count                        15312
 :time                                0.04
 :time.iuc_solver.get_iuc             0.00
 :time.iuc_solver.get_iuc.hyp_reduce2 0.00
 :time.pool_solver.proof              0.00
 :time.pool_solver.smt.total          0.01
 :time.pool_solver.smt.total.sat      0.00
 :time.spacer.init_rules              0.00
 :time.spacer.solve                   0.03
 :time.spacer.solve.propagate         0.00
 :time.spacer.solve.reach             0.03
 :time.spacer.solve.reach.children    0.00
 :time.spacer.solve.reach.cluster     0.00
 :time.spacer.solve.reach.gen.global  0.00
 :time.spacer.solve.reach.gen.ind     0.00)
(:max-memory   31.03
 :memory       30.53
 :num-allocs   8794642
 :rlimit-count 15312
 :time         0.04
 :total-time   0.06)
